w = 60;
n = 73;
chips_w = [34,33,25,25,23,21,21,21,16,16,16,16,16,14,14,14,14,14,13,13,12,12,12,12
,12,12,11,11,10,10,10,9,8,8,7,7,6,6,6,6,6,6,6,6,6,6,6,6
,6,5,5,5,5,4,4,4,4,3,3,3,3,3,3,3,3,3,3,2,2,2,2,2
,2];
chips_h = [6,14,7,15,6,5,3,12,3,5,5,7,18,7,6,6,5,13,3,5,4,18,13,9
,3,3,2,7,9,12,12,18,3,9,3,5,6,7,13,2,2,6,5,1,9,9,15,7
,5,7,7,18,5,3,4,10,1,7,2,1,2,9,9,5,2,18,7,1,10,3,12,9
,9];